p cnf 200 1110
-101 -79 0
-101 98 0
-101 87 0
-101 47 0
-101 -78 0
-101 57 0
-101 23 0
-101 99 0
-101 42 0
-101 -83 0
101 79 -98 -87 -47 78 -57 -23 -99 -42 83 0
-102 66 0
-102 -4 0
-102 48 0
-102 78 0
-102 89 0
-102 -51 0
-102 -39 0
-102 2 0
-102 74 0
-102 3 0
102 -66 4 -48 -78 -89 51 39 -2 -74 -3 0
-103 -55 0
-103 -9 0
-103 91 0
-103 -68 0
-103 -25 0
-103 88 0
-103 -57 0
-103 36 0
-103 -60 0
-103 -11 0
103 55 9 -91 68 25 -88 57 -36 60 11 0
-104 -69 0
-104 4 0
-104 47 0
-104 -20 0
-104 86 0
-104 -66 0
-104 8 0
-104 93 0
-104 72 0
-104 -2 0
104 69 -4 -47 20 -86 66 -8 -93 -72 2 0
-105 -53 0
-105 45 0
-105 -5 0
-105 48 0
-105 98 0
-105 -2 0
-105 23 0
-105 47 0
-105 -85 0
-105 29 0
105 53 -45 5 -48 -98 2 -23 -47 85 -29 0
-106 -88 0
-106 -4 0
-106 -45 0
-106 -28 0
-106 -61 0
-106 35 0
-106 -83 0
-106 -42 0
-106 23 0
-106 -96 0
106 88 4 45 28 61 -35 83 42 -23 96 0
-107 -19 0
-107 14 0
-107 96 0
-107 -91 0
-107 -38 0
-107 -28 0
-107 47 0
-107 -97 0
-107 85 0
-107 90 0
107 19 -14 -96 91 38 28 -47 97 -85 -90 0
-108 -71 0
-108 -52 0
-108 -93 0
-108 68 0
-108 -63 0
-108 -38 0
-108 89 0
-108 16 0
-108 -88 0
-108 14 0
108 71 52 93 -68 63 38 -89 -16 88 -14 0
-109 83 0
-109 46 0
-109 -65 0
-109 -64 0
-109 -62 0
-109 84 0
-109 -5 0
-109 77 0
-109 85 0
-109 -10 0
109 -83 -46 65 64 62 -84 5 -77 -85 10 0
-110 48 0
-110 -100 0
-110 -33 0
-110 43 0
-110 70 0
-110 -22 0
-110 -62 0
-110 -97 0
-110 42 0
-110 -2 0
110 -48 100 33 -43 -70 22 62 97 -42 2 0
101 102 103 104 105 106 107 108 109 110 0
-111 24 0
-111 -66 0
-111 -61 0
-111 11 0
-111 92 0
-111 -43 0
-111 -9 0
-111 -31 0
-111 -14 0
-111 -49 0
111 -24 66 61 -11 -92 43 9 31 14 49 0
-112 -91 0
-112 -88 0
-112 69 0
-112 2 0
-112 3 0
-112 -37 0
-112 -18 0
-112 -10 0
-112 52 0
-112 46 0
112 91 88 -69 -2 -3 37 18 10 -52 -46 0
-113 25 0
-113 44 0
-113 26 0
-113 -40 0
-113 52 0
-113 38 0
-113 2 0
-113 35 0
-113 -73 0
-113 13 0
113 -25 -44 -26 40 -52 -38 -2 -35 73 -13 0
-114 -41 0
-114 -98 0
-114 -52 0
-114 90 0
-114 44 0
-114 -1 0
-114 -70 0
-114 -17 0
-114 -62 0
-114 -6 0
114 41 98 52 -90 -44 1 70 17 62 6 0
-115 -51 0
-115 73 0
-115 39 0
-115 19 0
-115 12 0
-115 -61 0
-115 46 0
-115 10 0
-115 -13 0
-115 -97 0
115 51 -73 -39 -19 -12 61 -46 -10 13 97 0
-116 68 0
-116 -72 0
-116 -48 0
-116 -38 0
-116 -99 0
-116 21 0
-116 -24 0
-116 77 0
-116 23 0
-116 -50 0
116 -68 72 48 38 99 -21 24 -77 -23 50 0
-117 -38 0
-117 84 0
-117 68 0
-117 -12 0
-117 -95 0
-117 -67 0
-117 33 0
-117 -55 0
-117 -91 0
-117 -40 0
117 38 -84 -68 12 95 67 -33 55 91 40 0
-118 61 0
-118 -8 0
-118 -83 0
-118 90 0
-118 -78 0
-118 -10 0
-118 -28 0
-118 -54 0
-118 -36 0
-118 -13 0
118 -61 8 83 -90 78 10 28 54 36 13 0
-119 -49 0
-119 -72 0
-119 50 0
-119 -26 0
-119 88 0
-119 -82 0
-119 -41 0
-119 60 0
-119 -100 0
-119 69 0
119 49 72 -50 26 -88 82 41 -60 100 -69 0
-120 -7 0
-120 96 0
-120 36 0
-120 53 0
-120 -92 0
-120 -34 0
-120 22 0
-120 45 0
-120 60 0
-120 32 0
120 7 -96 -36 -53 92 34 -22 -45 -60 -32 0
111 112 113 114 115 116 117 118 119 120 0
-121 -78 0
-121 -51 0
-121 -59 0
-121 -75 0
-121 24 0
-121 -53 0
-121 -55 0
-121 49 0
-121 -40 0
-121 87 0
121 78 51 59 75 -24 53 55 -49 40 -87 0
-122 -52 0
-122 32 0
-122 -84 0
-122 -12 0
-122 -36 0
-122 -24 0
-122 -51 0
-122 -38 0
-122 39 0
-122 65 0
122 52 -32 84 12 36 24 51 38 -39 -65 0
-123 59 0
-123 41 0
-123 -6 0
-123 -100 0
-123 32 0
-123 -27 0
-123 -71 0
-123 -8 0
-123 86 0
-123 -64 0
123 -59 -41 6 100 -32 27 71 8 -86 64 0
-124 98 0
-124 -78 0
-124 94 0
-124 50 0
-124 54 0
-124 -21 0
-124 82 0
-124 -2 0
-124 -48 0
-124 34 0
124 -98 78 -94 -50 -54 21 -82 2 48 -34 0
-125 95 0
-125 -29 0
-125 -15 0
-125 -1 0
-125 34 0
-125 76 0
-125 -73 0
-125 -13 0
-125 -64 0
-125 -72 0
125 -95 29 15 1 -34 -76 73 13 64 72 0
-126 -84 0
-126 59 0
-126 -55 0
-126 74 0
-126 -14 0
-126 -91 0
-126 75 0
-126 -27 0
-126 -63 0
-126 -25 0
126 84 -59 55 -74 14 91 -75 27 63 25 0
-127 10 0
-127 25 0
-127 -30 0
-127 49 0
-127 7 0
-127 51 0
-127 48 0
-127 11 0
-127 -83 0
-127 40 0
127 -10 -25 30 -49 -7 -51 -48 -11 83 -40 0
-128 -87 0
-128 59 0
-128 91 0
-128 -29 0
-128 64 0
-128 85 0
-128 95 0
-128 -69 0
-128 -21 0
-128 6 0
128 87 -59 -91 29 -64 -85 -95 69 21 -6 0
-129 84 0
-129 -36 0
-129 7 0
-129 -60 0
-129 -27 0
-129 -73 0
-129 76 0
-129 -81 0
-129 -95 0
-129 45 0
129 -84 36 -7 60 27 73 -76 81 95 -45 0
-130 -25 0
-130 -1 0
-130 98 0
-130 -38 0
-130 37 0
-130 -47 0
-130 71 0
-130 -10 0
-130 48 0
-130 -67 0
130 25 1 -98 38 -37 47 -71 10 -48 67 0
121 122 123 124 125 126 127 128 129 130 0
-131 51 0
-131 32 0
-131 -21 0
-131 -55 0
-131 71 0
-131 -30 0
-131 94 0
-131 83 0
-131 -33 0
-131 -96 0
131 -51 -32 21 55 -71 30 -94 -83 33 96 0
-132 -76 0
-132 -68 0
-132 -93 0
-132 79 0
-132 22 0
-132 -6 0
-132 63 0
-132 21 0
-132 -49 0
-132 13 0
132 76 68 93 -79 -22 6 -63 -21 49 -13 0
-133 -33 0
-133 -58 0
-133 -31 0
-133 41 0
-133 11 0
-133 52 0
-133 -13 0
-133 -35 0
-133 -85 0
-133 -96 0
133 33 58 31 -41 -11 -52 13 35 85 96 0
-134 -78 0
-134 -34 0
-134 80 0
-134 -22 0
-134 -93 0
-134 94 0
-134 9 0
-134 27 0
-134 18 0
-134 33 0
134 78 34 -80 22 93 -94 -9 -27 -18 -33 0
-135 59 0
-135 -86 0
-135 -29 0
-135 96 0
-135 -13 0
-135 -62 0
-135 17 0
-135 85 0
-135 -45 0
-135 -10 0
135 -59 86 29 -96 13 62 -17 -85 45 10 0
-136 98 0
-136 48 0
-136 -77 0
-136 -32 0
-136 -99 0
-136 -17 0
-136 -61 0
-136 -45 0
-136 -60 0
-136 3 0
136 -98 -48 77 32 99 17 61 45 60 -3 0
-137 35 0
-137 27 0
-137 -88 0
-137 19 0
-137 77 0
-137 85 0
-137 -47 0
-137 -61 0
-137 -62 0
-137 -98 0
137 -35 -27 88 -19 -77 -85 47 61 62 98 0
-138 65 0
-138 -45 0
-138 -66 0
-138 -93 0
-138 21 0
-138 35 0
-138 16 0
-138 62 0
-138 -58 0
-138 36 0
138 -65 45 66 93 -21 -35 -16 -62 58 -36 0
-139 90 0
-139 67 0
-139 77 0
-139 -74 0
-139 -65 0
-139 -36 0
-139 -8 0
-139 95 0
-139 56 0
-139 58 0
139 -90 -67 -77 74 65 36 8 -95 -56 -58 0
-140 68 0
-140 -90 0
-140 65 0
-140 39 0
-140 -88 0
-140 -43 0
-140 -75 0
-140 4 0
-140 -91 0
-140 51 0
140 -68 90 -65 -39 88 43 75 -4 91 -51 0
131 132 133 134 135 136 137 138 139 140 0
-141 47 0
-141 54 0
-141 -84 0
-141 25 0
-141 11 0
-141 -15 0
-141 2 0
-141 37 0
-141 63 0
-141 -65 0
141 -47 -54 84 -25 -11 15 -2 -37 -63 65 0
-142 18 0
-142 16 0
-142 37 0
-142 57 0
-142 -89 0
-142 -13 0
-142 51 0
-142 -47 0
-142 46 0
-142 -100 0
142 -18 -16 -37 -57 89 13 -51 47 -46 100 0
-143 61 0
-143 -45 0
-143 6 0
-143 79 0
-143 76 0
-143 20 0
-143 58 0
-143 -92 0
-143 100 0
-143 -30 0
143 -61 45 -6 -79 -76 -20 -58 92 -100 30 0
-144 7 0
-144 -87 0
-144 -99 0
-144 -14 0
-144 -88 0
-144 -74 0
-144 -95 0
-144 2 0
-144 -90 0
-144 -52 0
144 -7 87 99 14 88 74 95 -2 90 52 0
-145 55 0
-145 -8 0
-145 95 0
-145 97 0
-145 -66 0
-145 -76 0
-145 43 0
-145 -28 0
-145 -33 0
-145 -83 0
145 -55 8 -95 -97 66 76 -43 28 33 83 0
-146 42 0
-146 -31 0
-146 -97 0
-146 15 0
-146 -47 0
-146 -57 0
-146 -30 0
-146 92 0
-146 -54 0
-146 -62 0
146 -42 31 97 -15 47 57 30 -92 54 62 0
-147 -65 0
-147 -92 0
-147 78 0
-147 67 0
-147 87 0
-147 -59 0
-147 51 0
-147 71 0
-147 31 0
-147 -91 0
147 65 92 -78 -67 -87 59 -51 -71 -31 91 0
-148 21 0
-148 -38 0
-148 23 0
-148 -92 0
-148 -82 0
-148 -45 0
-148 95 0
-148 100 0
-148 59 0
-148 -47 0
148 -21 38 -23 92 82 45 -95 -100 -59 47 0
-149 -59 0
-149 -64 0
-149 51 0
-149 -13 0
-149 81 0
-149 78 0
-149 -19 0
-149 47 0
-149 -77 0
-149 84 0
149 59 64 -51 13 -81 -78 19 -47 77 -84 0
-150 -28 0
-150 -20 0
-150 22 0
-150 7 0
-150 -71 0
-150 -13 0
-150 -19 0
-150 -16 0
-150 -87 0
-150 90 0
150 28 20 -22 -7 71 13 19 16 87 -90 0
141 142 143 144 145 146 147 148 149 150 0
-151 -36 0
-151 57 0
-151 -80 0
-151 -65 0
-151 -8 0
-151 85 0
-151 -95 0
-151 20 0
-151 52 0
-151 -37 0
151 36 -57 80 65 8 -85 95 -20 -52 37 0
-152 -51 0
-152 87 0
-152 -64 0
-152 20 0
-152 -77 0
-152 -78 0
-152 -18 0
-152 8 0
-152 -42 0
-152 -9 0
152 51 -87 64 -20 77 78 18 -8 42 9 0
-153 -89 0
-153 -45 0
-153 -17 0
-153 63 0
-153 19 0
-153 26 0
-153 42 0
-153 77 0
-153 -7 0
-153 -3 0
153 89 45 17 -63 -19 -26 -42 -77 7 3 0
-154 64 0
-154 -19 0
-154 35 0
-154 -46 0
-154 8 0
-154 -97 0
-154 -67 0
-154 90 0
-154 -40 0
-154 31 0
154 -64 19 -35 46 -8 97 67 -90 40 -31 0
-155 8 0
-155 -9 0
-155 84 0
-155 -60 0
-155 -86 0
-155 -41 0
-155 -67 0
-155 -98 0
-155 77 0
-155 99 0
155 -8 9 -84 60 86 41 67 98 -77 -99 0
-156 74 0
-156 -88 0
-156 -99 0
-156 -10 0
-156 -36 0
-156 91 0
-156 59 0
-156 18 0
-156 -48 0
-156 -57 0
156 -74 88 99 10 36 -91 -59 -18 48 57 0
-157 15 0
-157 -13 0
-157 -34 0
-157 -69 0
-157 54 0
-157 91 0
-157 78 0
-157 -28 0
-157 71 0
-157 79 0
157 -15 13 34 69 -54 -91 -78 28 -71 -79 0
-158 -6 0
-158 -28 0
-158 -80 0
-158 -35 0
-158 -7 0
-158 -24 0
-158 -79 0
-158 72 0
-158 -96 0
-158 42 0
158 6 28 80 35 7 24 79 -72 96 -42 0
-159 -44 0
-159 -39 0
-159 17 0
-159 7 0
-159 -84 0
-159 -24 0
-159 9 0
-159 -70 0
-159 75 0
-159 30 0
159 44 39 -17 -7 84 24 -9 70 -75 -30 0
-160 96 0
-160 57 0
-160 38 0
-160 64 0
-160 58 0
-160 13 0
-160 -26 0
-160 -69 0
-160 -61 0
-160 -98 0
160 -96 -57 -38 -64 -58 -13 26 69 61 98 0
151 152 153 154 155 156 157 158 159 160 0
-161 55 0
-161 7 0
-161 63 0
-161 -98 0
-161 -59 0
-161 48 0
-161 13 0
-161 18 0
-161 -31 0
-161 -76 0
161 -55 -7 -63 98 59 -48 -13 -18 31 76 0
-162 -84 0
-162 -17 0
-162 -41 0
-162 -62 0
-162 64 0
-162 -44 0
-162 -68 0
-162 -66 0
-162 -89 0
-162 -92 0
162 84 17 41 62 -64 44 68 66 89 92 0
-163 -79 0
-163 -37 0
-163 94 0
-163 75 0
-163 83 0
-163 -92 0
-163 -30 0
-163 7 0
-163 85 0
-163 18 0
163 79 37 -94 -75 -83 92 30 -7 -85 -18 0
-164 81 0
-164 15 0
-164 -77 0
-164 29 0
-164 20 0
-164 -75 0
-164 28 0
-164 -24 0
-164 4 0
-164 7 0
164 -81 -15 77 -29 -20 75 -28 24 -4 -7 0
-165 95 0
-165 99 0
-165 79 0
-165 -44 0
-165 -17 0
-165 32 0
-165 -87 0
-165 -53 0
-165 -92 0
-165 -100 0
165 -95 -99 -79 44 17 -32 87 53 92 100 0
-166 92 0
-166 51 0
-166 -100 0
-166 28 0
-166 -46 0
-166 -76 0
-166 94 0
-166 48 0
-166 -19 0
-166 59 0
166 -92 -51 100 -28 46 76 -94 -48 19 -59 0
-167 -37 0
-167 -35 0
-167 81 0
-167 47 0
-167 32 0
-167 -48 0
-167 -70 0
-167 -51 0
-167 1 0
-167 53 0
167 37 35 -81 -47 -32 48 70 51 -1 -53 0
-168 82 0
-168 68 0
-168 -43 0
-168 -47 0
-168 76 0
-168 -74 0
-168 41 0
-168 -92 0
-168 -36 0
-168 56 0
168 -82 -68 43 47 -76 74 -41 92 36 -56 0
-169 -5 0
-169 71 0
-169 -89 0
-169 4 0
-169 -93 0
-169 -56 0
-169 -20 0
-169 -73 0
-169 12 0
-169 25 0
169 5 -71 89 -4 93 56 20 73 -12 -25 0
-170 71 0
-170 39 0
-170 49 0
-170 89 0
-170 3 0
-170 9 0
-170 -54 0
-170 4 0
-170 58 0
-170 10 0
170 -71 -39 -49 -89 -3 -9 54 -4 -58 -10 0
161 162 163 164 165 166 167 168 169 170 0
-171 91 0
-171 51 0
-171 -5 0
-171 -98 0
-171 7 0
-171 55 0
-171 -74 0
-171 70 0
-171 31 0
-171 -86 0
171 -91 -51 5 98 -7 -55 74 -70 -31 86 0
-172 -24 0
-172 23 0
-172 92 0
-172 -73 0
-172 47 0
-172 9 0
-172 11 0
-172 81 0
-172 -54 0
-172 27 0
172 24 -23 -92 73 -47 -9 -11 -81 54 -27 0
-173 96 0
-173 47 0
-173 -29 0
-173 -93 0
-173 20 0
-173 95 0
-173 87 0
-173 -97 0
-173 -50 0
-173 -24 0
173 -96 -47 29 93 -20 -95 -87 97 50 24 0
-174 92 0
-174 -1 0
-174 74 0
-174 45 0
-174 -3 0
-174 -42 0
-174 73 0
-174 -97 0
-174 21 0
-174 76 0
174 -92 1 -74 -45 3 42 -73 97 -21 -76 0
-175 -93 0
-175 28 0
-175 84 0
-175 67 0
-175 11 0
-175 -23 0
-175 -72 0
-175 -35 0
-175 -99 0
-175 -51 0
175 93 -28 -84 -67 -11 23 72 35 99 51 0
-176 -12 0
-176 20 0
-176 2 0
-176 87 0
-176 57 0
-176 -18 0
-176 -4 0
-176 -33 0
-176 -50 0
-176 -86 0
176 12 -20 -2 -87 -57 18 4 33 50 86 0
-177 -54 0
-177 56 0
-177 -42 0
-177 94 0
-177 44 0
-177 100 0
-177 8 0
-177 -89 0
-177 -59 0
-177 32 0
177 54 -56 42 -94 -44 -100 -8 89 59 -32 0
-178 62 0
-178 16 0
-178 -24 0
-178 18 0
-178 89 0
-178 -2 0
-178 -94 0
-178 -66 0
-178 -98 0
-178 -96 0
178 -62 -16 24 -18 -89 2 94 66 98 96 0
-179 36 0
-179 51 0
-179 84 0
-179 69 0
-179 -32 0
-179 64 0
-179 7 0
-179 -14 0
-179 85 0
-179 -28 0
179 -36 -51 -84 -69 32 -64 -7 14 -85 28 0
-180 70 0
-180 -58 0
-180 -21 0
-180 1 0
-180 -85 0
-180 -75 0
-180 87 0
-180 -73 0
-180 51 0
-180 -63 0
180 -70 58 21 -1 85 75 -87 73 -51 63 0
171 172 173 174 175 176 177 178 179 180 0
-181 -66 0
-181 -27 0
-181 -93 0
-181 80 0
-181 19 0
-181 94 0
-181 -53 0
-181 -11 0
-181 2 0
-181 22 0
181 66 27 93 -80 -19 -94 53 11 -2 -22 0
-182 -35 0
-182 12 0
-182 25 0
-182 52 0
-182 98 0
-182 20 0
-182 -59 0
-182 -34 0
-182 51 0
-182 41 0
182 35 -12 -25 -52 -98 -20 59 34 -51 -41 0
-183 -26 0
-183 -36 0
-183 -13 0
-183 -61 0
-183 -37 0
-183 44 0
-183 47 0
-183 -35 0
-183 -38 0
-183 -94 0
183 26 36 13 61 37 -44 -47 35 38 94 0
-184 -37 0
-184 92 0
-184 64 0
-184 -72 0
-184 -70 0
-184 -47 0
-184 -26 0
-184 11 0
-184 -82 0
-184 -12 0
184 37 -92 -64 72 70 47 26 -11 82 12 0
-185 -50 0
-185 87 0
-185 14 0
-185 -80 0
-185 -54 0
-185 62 0
-185 -94 0
-185 -99 0
-185 -98 0
-185 82 0
185 50 -87 -14 80 54 -62 94 99 98 -82 0
-186 66 0
-186 -8 0
-186 -91 0
-186 33 0
-186 53 0
-186 -88 0
-186 77 0
-186 20 0
-186 -95 0
-186 42 0
186 -66 8 91 -33 -53 88 -77 -20 95 -42 0
-187 -77 0
-187 -13 0
-187 -28 0
-187 -52 0
-187 79 0
-187 82 0
-187 -61 0
-187 97 0
-187 17 0
-187 4 0
187 77 13 28 52 -79 -82 61 -97 -17 -4 0
-188 -38 0
-188 80 0
-188 -25 0
-188 -42 0
-188 -66 0
-188 -11 0
-188 -51 0
-188 97 0
-188 -53 0
-188 85 0
188 38 -80 25 42 66 11 51 -97 53 -85 0
-189 52 0
-189 70 0
-189 26 0
-189 69 0
-189 -20 0
-189 -80 0
-189 -96 0
-189 6 0
-189 88 0
-189 33 0
189 -52 -70 -26 -69 20 80 96 -6 -88 -33 0
-190 81 0
-190 -45 0
-190 -44 0
-190 -12 0
-190 49 0
-190 -36 0
-190 -34 0
-190 65 0
-190 59 0
-190 -22 0
190 -81 45 44 12 -49 36 34 -65 -59 22 0
181 182 183 184 185 186 187 188 189 190 0
-191 -9 0
-191 67 0
-191 94 0
-191 -90 0
-191 47 0
-191 1 0
-191 -93 0
-191 -71 0
-191 54 0
-191 33 0
191 9 -67 -94 90 -47 -1 93 71 -54 -33 0
-192 20 0
-192 22 0
-192 27 0
-192 -75 0
-192 49 0
-192 14 0
-192 74 0
-192 77 0
-192 -2 0
-192 -15 0
192 -20 -22 -27 75 -49 -14 -74 -77 2 15 0
-193 27 0
-193 58 0
-193 84 0
-193 -77 0
-193 68 0
-193 -26 0
-193 -2 0
-193 97 0
-193 -25 0
-193 71 0
193 -27 -58 -84 77 -68 26 2 -97 25 -71 0
-194 19 0
-194 -13 0
-194 -22 0
-194 5 0
-194 50 0
-194 -15 0
-194 -100 0
-194 63 0
-194 -81 0
-194 55 0
194 -19 13 22 -5 -50 15 100 -63 81 -55 0
-195 -12 0
-195 -39 0
-195 41 0
-195 88 0
-195 33 0
-195 49 0
-195 11 0
-195 -90 0
-195 -46 0
-195 48 0
195 12 39 -41 -88 -33 -49 -11 90 46 -48 0
-196 69 0
-196 23 0
-196 -53 0
-196 -98 0
-196 -37 0
-196 -16 0
-196 -92 0
-196 40 0
-196 5 0
-196 52 0
196 -69 -23 53 98 37 16 92 -40 -5 -52 0
-197 51 0
-197 -68 0
-197 -5 0
-197 61 0
-197 36 0
-197 -9 0
-197 -64 0
-197 -12 0
-197 85 0
-197 69 0
197 -51 68 5 -61 -36 9 64 12 -85 -69 0
-198 99 0
-198 -5 0
-198 25 0
-198 82 0
-198 15 0
-198 -33 0
-198 72 0
-198 92 0
-198 -54 0
-198 -10 0
198 -99 5 -25 -82 -15 33 -72 -92 54 10 0
-199 -17 0
-199 -96 0
-199 -39 0
-199 41 0
-199 58 0
-199 -84 0
-199 -5 0
-199 -54 0
-199 -20 0
-199 -19 0
199 17 96 39 -41 -58 84 5 54 20 19 0
-200 -15 0
-200 -10 0
-200 -14 0
-200 65 0
-200 66 0
-200 -44 0
-200 90 0
-200 81 0
-200 12 0
-200 -73 0
200 15 10 14 -65 -66 44 -90 -81 -12 73 0
191 192 193 194 195 196 197 198 199 200 0
